networks/zoo_65_212/standard/zoo_65_212.txt
OKAY
Number of groups: 41
Flow 1: {3 25 0} {25 4 1} {4 5 2} {5 38 3} 
Flow 9: {3 22 0} {22 31 1} {31 32 2} {32 65 3} 
Flow 14: {5 21 0} {21 9 1} {9 42 2} 
Flow 22: {9 26 0} {26 59 1} 
Flow 26: {5 4 0} {4 25 1} {25 58 2} 
Flow 27: {6 21 0} 
Flow 54: {22 29 0} {29 62 1} 
Flow 62: {9 21 0} {21 11 1} {11 14 2} {14 47 3} 
Flow 64: {21 20 0} 
Flow 73: {10 21 0} 
Flow 75: {12 22 0} 
Flow 77: {14 11 0} {11 21 1} 
Flow 78: {14 22 0} {22 55 1} 
Flow 80: {16 17 0} 
Flow 83: {7 2 0} {2 35 1} 
Flow 84: {22 3 0} {3 36 1} 
Flow 86: {21 6 0} {6 39 1} 
Flow 90: {21 10 0} {10 43 1} 
Flow 91: {8 21 0} {21 22 1} {22 12 2} {12 45 3} 
Flow 93: {17 18 0} {18 51 1} 
Flow 97: {7 1 0} {1 25 1} {25 24 2} {24 57 3} 
Flow 103: {18 19 0} {19 21 1} {21 54 2} 
Flow 111: {20 21 0} {21 8 1} {8 41 2} 
Flow 113: {20 22 0} {22 14 1} 
Flow 131: {23 17 0} {17 8 1} 
Flow 135: {1 2 0} 
Flow 136: {25 3 0} 
Flow 146: {21 19 0} {19 18 1} 
Flow 150: {1 7 0} {7 8 1} {8 17 2} {17 23 3} {23 56 4} 
Flow 153: {22 28 0} {28 61 1} 
Flow 155: {22 30 0} {30 63 1} 
Flow 161: {27 28 0} {28 22 1} {22 25 2} {25 1 3} {1 34 4} 
Flow 163: {27 26 0} {26 9 1} {9 6 2} 
Flow 186: {17 50 0} 
Flow 187: {29 22 0} {22 20 1} {20 53 2} 
Flow 194: {30 22 0} 
Flow 198: {31 22 0} {22 21 1} {21 5 2} 
Flow 199: {8 7 0} {7 40 1} 
Flow 207: {32 33 0} {33 24 1} 
Flow 209: {32 31 0} {31 64 1} 
Flow 211: {24 25 0} {25 22 1} 
Time taken running everything: 0 seconds
