networks/zoo_65_212/standard/zoo_65_212.sol
<?xml version = "1.0" encoding="UTF-8" standalone="yes"?>
<CPLEXSolution version="1.2">
 <header
   problemName="networks/zoo_65_212/zoo_65_212.lp"
   solutionName="incumbent"
   solutionIndex="-1"
   objectiveValue="41"
   solutionTypeValue="3"
   solutionTypeString="primal"
   solutionStatusValue="101"
   solutionStatusString="integer optimal solution"
   solutionMethodString="mip"
   primalFeasible="1"
   dualFeasible="1"
   MIPNodes="0"
   MIPIterations="2226"
   writeLevel="3"/>
 <quality
   epInt="1.0000000000000001e-05"
   epRHS="9.9999999999999995e-07"
   maxIntInfeas="0"
   maxPrimalInfeas="8.8817841970012523e-16"
   maxX="4"
   maxSlack="10"/>
 <variables>
  <variable name="Y(1,5)" index="4" value="1"/>
  <variable name="Y(9,32)" index="477" value="1"/>
  <variable name="Y(14,9)" index="736" value="1"/>
  <variable name="Y(22,26)" index="1199" value="1"/>
  <variable name="Y(26,25)" index="1422" value="1"/>
  <variable name="Y(27,6)" index="1461" value="1"/>
  <variable name="Y(54,29)" index="2994" value="1"/>
  <variable name="Y(62,14)" index="3428" value="1"/>
  <variable name="Y(64,21)" index="3546" value="1"/>
  <variable name="Y(73,10)" index="4041" value="1"/>
  <variable name="Y(75,12)" index="4155" value="1"/>
  <variable name="Y(77,11)" index="4266" value="1"/>
  <variable name="Y(78,22)" index="4331" value="1"/>
  <variable name="Y(80,16)" index="4437" value="1"/>
  <variable name="Y(83,2)" index="4593" value="1"/>
  <variable name="Y(84,3)" index="4650" value="1"/>
  <variable name="Y(86,6)" index="4765" value="1"/>
  <variable name="Y(90,10)" index="4993" value="1"/>
  <variable name="Y(91,12)" index="5051" value="1"/>
  <variable name="Y(93,18)" index="5167" value="1"/>
  <variable name="Y(97,24)" index="5397" value="1"/>
  <variable name="Y(103,21)" index="5730" value="1"/>
  <variable name="Y(111,8)" index="6167" value="1"/>
  <variable name="Y(113,22)" index="6291" value="1"/>
  <variable name="Y(131,17)" index="7294" value="1"/>
  <variable name="Y(135,1)" index="7504" value="1"/>
  <variable name="Y(136,25)" index="7582" value="1"/>
  <variable name="Y(146,19)" index="8136" value="1"/>
  <variable name="Y(150,23)" index="8364" value="1"/>
  <variable name="Y(153,28)" index="8537" value="1"/>
  <variable name="Y(155,30)" index="8651" value="1"/>
  <variable name="Y(161,1)" index="8960" value="1"/>
  <variable name="Y(163,9)" index="9080" value="1"/>
  <variable name="Y(186,17)" index="10374" value="1"/>
  <variable name="Y(187,20)" index="10433" value="1"/>
  <variable name="Y(194,30)" index="10835" value="1"/>
  <variable name="Y(198,21)" index="11050" value="1"/>
  <variable name="Y(199,7)" index="11094" value="1"/>
  <variable name="Y(207,33)" index="11566" value="1"/>
  <variable name="Y(209,31)" index="11676" value="1"/>
  <variable name="Y(211,25)" index="11782" value="1"/>
  <variable name="X(1,2,135)" index="12006" value="1"/>
  <variable name="X(1,7,150)" index="12233" value="1"/>
  <variable name="X(1,25,97)" index="12392" value="1"/>
  <variable name="X(1,34,161)" index="12668" value="1"/>
  <variable name="X(2,35,83)" index="12802" value="1"/>
  <variable name="X(3,22,9)" index="12940" value="1"/>
  <variable name="X(3,25,1)" index="13144" value="1"/>
  <variable name="X(3,36,84)" index="13439" value="1"/>
  <variable name="X(4,5,1)" index="13568" value="1"/>
  <variable name="X(4,25,26)" index="13805" value="1"/>
  <variable name="X(5,4,26)" index="14017" value="1"/>
  <variable name="X(5,21,14)" index="14217" value="1"/>
  <variable name="X(5,38,1)" index="14416" value="1"/>
  <variable name="X(6,21,27)" index="14654" value="1"/>
  <variable name="X(6,39,86)" index="14925" value="1"/>
  <variable name="X(7,1,97)" index="15148" value="1"/>
  <variable name="X(7,2,83)" index="15346" value="1"/>
  <variable name="X(7,8,150)" index="15625" value="1"/>
  <variable name="X(7,40,199)" index="15886" value="1"/>
  <variable name="X(8,7,199)" index="16098" value="1"/>
  <variable name="X(8,17,150)" index="16261" value="1"/>
  <variable name="X(8,21,91)" index="16414" value="1"/>
  <variable name="X(8,41,111)" index="16646" value="1"/>
  <variable name="X(9,6,163)" index="16910" value="1"/>
  <variable name="X(9,21,62)" index="17021" value="1"/>
  <variable name="X(9,26,22)" index="17193" value="1"/>
  <variable name="X(9,42,14)" index="17397" value="1"/>
  <variable name="X(10,21,73)" index="17668" value="1"/>
  <variable name="X(10,43,90)" index="17897" value="1"/>
  <variable name="X(11,14,62)" index="18081" value="1"/>
  <variable name="X(11,21,77)" index="18308" value="1"/>
  <variable name="X(12,22,75)" index="18518" value="1"/>
  <variable name="X(12,45,91)" index="18746" value="1"/>
  <variable name="X(14,11,77)" index="18944" value="1"/>
  <variable name="X(14,22,78)" index="19157" value="1"/>
  <variable name="X(14,47,62)" index="19353" value="1"/>
  <variable name="X(16,17,80)" index="19583" value="1"/>
  <variable name="X(17,8,131)" index="19846" value="1"/>
  <variable name="X(17,18,93)" index="20020" value="1"/>
  <variable name="X(17,23,150)" index="20289" value="1"/>
  <variable name="X(17,50,186)" index="20537" value="1"/>
  <variable name="X(18,19,103)" index="20666" value="1"/>
  <variable name="X(18,51,93)" index="20868" value="1"/>
  <variable name="X(19,18,146)" index="21133" value="1"/>
  <variable name="X(19,21,103)" index="21302" value="1"/>
  <variable name="X(20,21,111)" index="21522" value="1"/>
  <variable name="X(20,22,113)" index="21736" value="1"/>
  <variable name="X(20,53,187)" index="22022" value="1"/>
  <variable name="X(21,5,198)" index="22245" value="1"/>
  <variable name="X(21,6,86)" index="22345" value="1"/>
  <variable name="X(21,8,111)" index="22582" value="1"/>
  <variable name="X(21,9,14)" index="22697" value="1"/>
  <variable name="X(21,10,90)" index="22985" value="1"/>
  <variable name="X(21,11,62)" index="23169" value="1"/>
  <variable name="X(21,19,146)" index="23465" value="1"/>
  <variable name="X(21,20,64)" index="23595" value="1"/>
  <variable name="X(21,22,91)" index="23834" value="1"/>
  <variable name="X(21,54,103)" index="24058" value="1"/>
  <variable name="X(22,3,84)" index="24251" value="1"/>
  <variable name="X(22,12,91)" index="24470" value="1"/>
  <variable name="X(22,14,113)" index="24704" value="1"/>
  <variable name="X(22,20,187)" index="24990" value="1"/>
  <variable name="X(22,21,198)" index="25213" value="1"/>
  <variable name="X(22,25,161)" index="25388" value="1"/>
  <variable name="X(22,28,153)" index="25592" value="1"/>
  <variable name="X(22,29,54)" index="25705" value="1"/>
  <variable name="X(22,30,155)" index="26018" value="1"/>
  <variable name="X(22,31,9)" index="26084" value="1"/>
  <variable name="X(22,55,78)" index="26365" value="1"/>
  <variable name="X(23,17,131)" index="26630" value="1"/>
  <variable name="X(23,56,150)" index="26861" value="1"/>
  <variable name="X(24,25,211)" index="27134" value="1"/>
  <variable name="X(24,57,97)" index="27232" value="1"/>
  <variable name="X(25,1,161)" index="27508" value="1"/>
  <variable name="X(25,3,136)" index="27695" value="1"/>
  <variable name="X(25,4,1)" index="27772" value="1"/>
  <variable name="X(25,22,211)" index="28194" value="1"/>
  <variable name="X(25,24,97)" index="28292" value="1"/>
  <variable name="X(25,58,26)" index="28433" value="1"/>
  <variable name="X(26,9,163)" index="28782" value="1"/>
  <variable name="X(26,59,22)" index="28853" value="1"/>
  <variable name="X(27,26,163)" index="29206" value="1"/>
  <variable name="X(27,28,161)" index="29416" value="1"/>
  <variable name="X(28,22,161)" index="29628" value="1"/>
  <variable name="X(28,61,153)" index="29832" value="1"/>
  <variable name="X(29,22,187)" index="30078" value="1"/>
  <variable name="X(29,62,54)" index="30157" value="1"/>
  <variable name="X(30,22,194)" index="30509" value="1"/>
  <variable name="X(30,63,155)" index="30682" value="1"/>
  <variable name="X(31,22,198)" index="30937" value="1"/>
  <variable name="X(31,32,9)" index="30960" value="1"/>
  <variable name="X(31,64,209)" index="31372" value="1"/>
  <variable name="X(32,31,209)" index="31584" value="1"/>
  <variable name="X(32,33,207)" index="31794" value="1"/>
  <variable name="X(32,65,9)" index="31808" value="1"/>
  <variable name="X(33,24,207)" index="32218" value="1"/>
  <variable name="C(1,25)" index="32225" value="1"/>
  <variable name="C(1,4)" index="32226" value="2"/>
  <variable name="C(1,5)" index="32227" value="3"/>
  <variable name="C(9,22)" index="32250" value="1"/>
  <variable name="C(9,31)" index="32251" value="2"/>
  <variable name="C(9,32)" index="32252" value="3"/>
  <variable name="C(14,21)" index="32268" value="1"/>
  <variable name="C(14,9)" index="32269" value="2"/>
  <variable name="C(22,26)" index="32298" value="1"/>
  <variable name="C(26,4)" index="32311" value="1"/>
  <variable name="C(26,25)" index="32312" value="2"/>
  <variable name="C(54,29)" index="32409" value="1"/>
  <variable name="C(62,21)" index="32437" value="1"/>
  <variable name="C(62,11)" index="32438" value="2"/>
  <variable name="C(62,14)" index="32439" value="3"/>
  <variable name="C(77,11)" index="32487" value="1"/>
  <variable name="C(78,22)" index="32490" value="1"/>
  <variable name="C(83,2)" index="32511" value="1"/>
  <variable name="C(84,3)" index="32516" value="1"/>
  <variable name="C(86,6)" index="32524" value="1"/>
  <variable name="C(90,10)" index="32537" value="1"/>
  <variable name="C(91,21)" index="32540" value="1"/>
  <variable name="C(91,22)" index="32541" value="2"/>
  <variable name="C(91,12)" index="32542" value="3"/>
  <variable name="C(93,18)" index="32549" value="1"/>
  <variable name="C(97,1)" index="32564" value="1"/>
  <variable name="C(97,25)" index="32565" value="2.0000000000000009"/>
  <variable name="C(97,24)" index="32566" value="3"/>
  <variable name="C(103,19)" index="32594" value="1"/>
  <variable name="C(103,21)" index="32595" value="2"/>
  <variable name="C(111,21)" index="32618" value="1"/>
  <variable name="C(111,8)" index="32619" value="2"/>
  <variable name="C(113,22)" index="32624" value="1"/>
  <variable name="C(131,17)" index="32672" value="1"/>
  <variable name="C(146,19)" index="32729" value="1"/>
  <variable name="C(150,7)" index="32741" value="1"/>
  <variable name="C(150,8)" index="32742" value="2"/>
  <variable name="C(150,17)" index="32743" value="3"/>
  <variable name="C(150,23)" index="32744" value="4"/>
  <variable name="C(153,28)" index="32754" value="1"/>
  <variable name="C(155,30)" index="32760" value="1"/>
  <variable name="C(161,28)" index="32781" value="1"/>
  <variable name="C(161,22)" index="32782" value="2"/>
  <variable name="C(161,25)" index="32783" value="3"/>
  <variable name="C(161,1)" index="32784" value="4"/>
  <variable name="C(163,26)" index="32791" value="1"/>
  <variable name="C(163,9)" index="32792" value="2"/>
  <variable name="C(187,22)" index="32887" value="1"/>
  <variable name="C(187,20)" index="32888" value="2"/>
  <variable name="C(198,22)" index="32923" value="1"/>
  <variable name="C(198,21)" index="32924" value="2"/>
  <variable name="C(199,7)" index="32931" value="1"/>
  <variable name="C(207,33)" index="32964" value="1"/>
  <variable name="C(209,31)" index="32971" value="1"/>
  <variable name="C(211,25)" index="32979" value="1"/>
 </variables>
</CPLEXSolution>
